
Gurobi 11.0.1 (win64) logging started Thu May 16 18:57:21 2024

Set parameter LogFile to value "output/solver_log26.txt"
Gurobi Optimizer version 11.0.1 build v11.0.1rc0 (win64 - Windows 11.0 (22631.2))

CPU model: 11th Gen Intel(R) Core(TM) i7-1165G7 @ 2.80GHz, instruction set [SSE2|AVX|AVX2|AVX512]
Thread count: 4 physical cores, 8 logical processors, using up to 8 threads

Optimize a model with 4990 rows, 1246 columns and 93715 nonzeros
Model fingerprint: 0x9a8eb49c
Variable types: 568 continuous, 678 integer (678 binary)
Coefficient statistics:
  Matrix range     [4e-01, 1e+05]
  Objective range  [1e+00, 1e+02]
  Bounds range     [1e+00, 1e+00]
  RHS range        [1e-02, 1e+05]

User MIP start produced solution with objective 40344 (0.01s)
User MIP start produced solution with objective 40344 (0.01s)
Loaded user MIP start with objective 40344

Presolve removed 810 rows and 411 columns
Presolve time: 0.10s
Presolved: 4180 rows, 835 columns, 79527 nonzeros
Variable types: 529 continuous, 306 integer (299 binary)

Root relaxation: objective 5.031864e+04, 1712 iterations, 0.10 seconds (0.19 work units)

    Nodes    |    Current Node    |     Objective Bounds      |     Work
 Expl Unexpl |  Obj  Depth IntInf | Incumbent    BestBd   Gap | It/Node Time

     0     0 50318.6419    0   40 40343.9634 50318.6419  24.7%     -    0s
     0     0 48903.3358    0   39 40343.9634 48903.3358  21.2%     -    0s
     0     0 48780.4127    0   45 40343.9634 48780.4127  20.9%     -    0s
     0     0 48780.4127    0   52 40343.9634 48780.4127  20.9%     -    0s
     0     0 48459.4958    0   61 40343.9634 48459.4958  20.1%     -    0s
     0     0 48383.0249    0   64 40343.9634 48383.0249  19.9%     -    0s
     0     0 48383.0249    0   65 40343.9634 48383.0249  19.9%     -    1s
     0     0 48067.9106    0   65 40343.9634 48067.9106  19.1%     -    1s
     0     0 48025.8942    0   79 40343.9634 48025.8942  19.0%     -    1s
     0     0 48024.1251    0   76 40343.9634 48024.1251  19.0%     -    1s
     0     0 48023.9867    0   76 40343.9634 48023.9867  19.0%     -    1s
     0     0 47755.3819    0   74 40343.9634 47755.3819  18.4%     -    1s
     0     0 47723.8055    0   69 40343.9634 47723.8055  18.3%     -    1s
     0     0 47675.0173    0   70 40343.9634 47675.0173  18.2%     -    1s
     0     0 47674.9104    0   73 40343.9634 47674.9104  18.2%     -    1s
     0     0 47672.4267    0   74 40343.9634 47672.4267  18.2%     -    1s
     0     0 47667.9076    0   74 40343.9634 47667.9076  18.2%     -    2s
     0     0 47667.9076    0   74 40343.9634 47667.9076  18.2%     -    2s
     0     0 47641.6670    0   71 40343.9634 47641.6670  18.1%     -    2s
     0     0 47584.5307    0   65 40343.9634 47584.5307  17.9%     -    2s
     0     0 47584.5307    0   68 40343.9634 47584.5307  17.9%     -    2s
     0     0 47584.5307    0   68 40343.9634 47584.5307  17.9%     -    2s
     0     0 47584.5307    0   74 40343.9634 47584.5307  17.9%     -    2s
     0     0 47516.8957    0   73 40343.9634 47516.8957  17.8%     -    2s
     0     0 47516.8957    0   78 40343.9634 47516.8957  17.8%     -    2s
     0     0 47516.8957    0   81 40343.9634 47516.8957  17.8%     -    2s
     0     0 47494.0341    0   70 40343.9634 47494.0341  17.7%     -    2s
     0     0 47494.0341    0   77 40343.9634 47494.0341  17.7%     -    2s
     0     0 47494.0341    0   74 40343.9634 47494.0341  17.7%     -    2s
     0     0 47494.0341    0   74 40343.9634 47494.0341  17.7%     -    2s
     0     2 47478.4378    0   74 40343.9634 47478.4378  17.7%     -    3s
    56    61 41799.8779   12   35 40343.9634 45547.0347  12.9%   552    5s
   274   165 40883.5505   16   24 40343.9634 45421.0438  12.6%   655   10s
   611   232     cutoff   13      40343.9634 44031.4145  9.14%   649   15s
H  780   260                    40344.682752 43777.2582  8.51%   667   20s
  1052   283 42030.1964    8   33 40344.6828 43283.0100  7.28%   676   25s
  1478   339 40725.3259   15   43 40344.6828 42736.0717  5.93%   642   30s
  1907   314 40628.3366   11   26 40344.6828 42183.1231  4.56%   605   35s
  2364   267 40638.6470   13   31 40344.6828 41761.8299  3.51%   601   41s
  2811   227     cutoff   11      40344.6828 41364.8368  2.53%   577   45s
  4034   533 40348.8789   39   74 40344.6828 40349.2383  0.01%   471   55s
  4176   580 40349.2383   22   41 40344.6828 40349.2383  0.01%   477   60s

Cutting planes:
  Gomory: 3
  Implied bound: 5
  MIR: 55
  RLT: 5

Explored 4183 nodes (2013166 simplex iterations) in 60.02 seconds (139.87 work units)
Thread count was 8 (of 8 available processors)

Solution count 2: 40344.7 40344 

Time limit reached
Best objective 4.034468275205e+04, best bound 4.034923830645e+04, gap 0.0113%
